************************************************************************
file with basedata            : mm6_.bas
initial value random generator: 561347072
************************************************************************
projects                      :  1
jobs (incl. supersource/sink ):  12
horizon                       :  72
RESOURCES
  - renewable                 :  2   R
  - nonrenewable              :  2   N
  - doubly constrained        :  0   D
************************************************************************
PROJECT INFORMATION:
pronr.  #jobs rel.date duedate tardcost  MPM-Time
    1     10      0       14        2       14
************************************************************************
PRECEDENCE RELATIONS:
jobnr.    #modes  #successors   successors
   0        1          3           1   2   3
   1        3          1           8
   2        3          3           4   6  10
   3        3          2           5   7
   4        3          2           7   8
   5        3          2           8  10
   6        3          1           7
   7        3          1           9
   8        3          1          11
   9        3          1          11
  10        3          1          11
  11        1          0        
************************************************************************
REQUESTS/DURATIONS:
jobnr. mode duration  R 1  R 2  R 3  R 4  E(W 1)  E(W 2)  E(W 3)
------------------------------------------------------------------------
  0      1     0       0    0    0    0     0       0       0
  1      1     1       0    9    4    8     9       4       8
  2      1     1       0    2    6    4     2       6       4
  3      1     3       0    1    7    6     6      21      18
  4      1     3      10    0   10   10    30      30      30
  5      1     5       0    5    7    7    25      35      35
  6      1     2       1    0    4    7     4       8      14
  7      1     6       0    6    7    9    36      42      54
  8      1     6       6    0    4    2    36      24      12
  9      1     2       0    6    9    9    12      18      18
 10      1     2       0    8    8    7    16      16      14
 11      1     0       0    0    0    0     0       0       0
************************************************************************
RESOURCEAVAILABILITIES:
  R 1  R 2  R 3
   14   57   54
************************************************************************
RESOURCE LIMITS:
jobnr.  l(R 1)  u(R 1)  l(R 2)  u(R 2)  l(R 3)  u(R 3)
------------------------------------------------------------------------
  0        0       0       0       0       0       0
  1        5       9       2       4       4       8
  2        1       2       3       6       2       4
  3        1       2       4       7       3       6
  4        5      10       5      10       5      10
  5        3       5       4       7       4       7
  6        1       2       2       4       4       7
  7        3       6       4       7       5       9
  8        3       6       2       4       1       2
  9        3       6       5       9       5       9
 10        4       8       4       8       4       7
 11        0       0       0       0       0       0
************************************************************************
SCENARIOS:
------------------------------------------------------------------------
RESOURCE k = 1
s = 1: (0, 8, 2, 5, 26, 18, 6, 33, 38, 17, 18, 0)
s = 2: (0, 10, 2, 5, 27, 19, 3, 28, 50, 10, 15, 0)
s = 3: (0, 10, 3, 7, 32, 27, 7, 27, 24, 15, 18, 0)
s = 4: (0, 14, 2, 8, 35, 40, 5, 41, 34, 9, 19, 0)
s = 5: (0, 10, 3, 5, 29, 18, 6, 25, 36, 16, 12, 0)
s = 6: (0, 12, 3, 6, 24, 40, 4, 24, 26, 11, 10, 0)
s = 7: (0, 8, 2, 5, 22, 34, 5, 34, 23, 12, 16, 0)
s = 8: (0, 16, 2, 6, 22, 29, 3, 42, 49, 17, 11, 0)
s = 9: (0, 8, 2, 6, 22, 28, 3, 39, 37, 9, 17, 0)
s = 10: (0, 15, 2, 7, 31, 24, 3, 28, 46, 12, 18, 0)
s = 11: (0, 12, 3, 8, 46, 28, 5, 25, 29, 12, 16, 0)
s = 12: (0, 11, 2, 8, 18, 17, 3, 47, 32, 12, 13, 0)
s = 13: (0, 11, 2, 6, 17, 19, 4, 27, 35, 13, 11, 0)
s = 14: (0, 15, 2, 8, 18, 31, 3, 26, 32, 13, 25, 0)
s = 15: (0, 6, 3, 6, 24, 20, 4, 48, 34, 10, 13, 0)
s = 16: (0, 8, 2, 5, 31, 25, 3, 38, 43, 16, 12, 0)
s = 17: (0, 10, 2, 10, 24, 25, 4, 36, 39, 13, 9, 0)
s = 18: (0, 10, 2, 6, 27, 38, 6, 59, 40, 11, 10, 0)
s = 19: (0, 10, 2, 8, 28, 22, 6, 26, 36, 15, 11, 0)
s = 20: (0, 9, 3, 6, 34, 33, 7, 48, 46, 7, 19, 0)
s = 21: (0, 12, 2, 7, 24, 39, 6, 40, 27, 12, 12, 0)
s = 22: (0, 9, 2, 4, 21, 32, 3, 40, 35, 20, 23, 0)
s = 23: (0, 7, 4, 10, 34, 20, 3, 39, 31, 7, 17, 0)
s = 24: (0, 7, 2, 5, 52, 20, 4, 32, 36, 13, 14, 0)
s = 25: (0, 11, 2, 8, 26, 31, 5, 32, 37, 7, 23, 0)
s = 26: (0, 9, 3, 9, 36, 28, 4, 20, 42, 15, 13, 0)
s = 27: (0, 8, 2, 8, 34, 22, 6, 23, 29, 17, 21, 0)
s = 28: (0, 11, 2, 6, 26, 22, 5, 55, 36, 11, 12, 0)
s = 29: (0, 12, 4, 5, 28, 31, 5, 28, 43, 16, 19, 0)
s = 30: (0, 6, 2, 10, 35, 21, 4, 26, 29, 9, 14, 0)
s = 31: (0, 13, 2, 8, 34, 25, 5, 25, 38, 14, 17, 0)
s = 32: (0, 8, 4, 7, 34, 30, 5, 33, 26, 10, 11, 0)
s = 33: (0, 9, 2, 8, 24, 45, 3, 26, 33, 17, 17, 0)
s = 34: (0, 8, 3, 7, 40, 18, 4, 32, 36, 11, 14, 0)
s = 35: (0, 12, 3, 7, 40, 18, 4, 38, 49, 17, 14, 0)
s = 36: (0, 13, 2, 6, 34, 27, 3, 53, 23, 23, 12, 0)
s = 37: (0, 13, 4, 6, 26, 18, 6, 38, 44, 9, 14, 0)
s = 38: (0, 8, 2, 4, 27, 32, 3, 41, 35, 9, 16, 0)
s = 39: (0, 6, 3, 5, 32, 27, 6, 26, 35, 14, 14, 0)
s = 40: (0, 8, 2, 7, 24, 31, 3, 33, 31, 18, 12, 0)
s = 41: (0, 10, 3, 7, 51, 40, 3, 41, 35, 14, 12, 0)
s = 42: (0, 15, 3, 4, 45, 20, 4, 29, 48, 14, 17, 0)
s = 43: (0, 8, 3, 4, 22, 23, 4, 27, 34, 13, 22, 0)
s = 44: (0, 9, 2, 7, 33, 35, 7, 42, 36, 8, 19, 0)
s = 45: (0, 11, 3, 5, 35, 18, 5, 44, 42, 12, 15, 0)
s = 46: (0, 9, 3, 5, 24, 26, 4, 31, 44, 11, 11, 0)
s = 47: (0, 7, 3, 6, 21, 25, 6, 25, 37, 12, 16, 0)
s = 48: (0, 7, 2, 4, 23, 24, 5, 31, 41, 14, 18, 0)
s = 49: (0, 11, 2, 8, 30, 19, 4, 47, 40, 12, 16, 0)
s = 50: (0, 9, 2, 9, 26, 20, 4, 43, 30, 10, 27, 0)
s = 51: (0, 9, 3, 7, 24, 34, 5, 37, 34, 7, 10, 0)
s = 52: (0, 6, 2, 4, 29, 26, 5, 34, 30, 12, 20, 0)
s = 53: (0, 7, 4, 7, 26, 33, 6, 44, 58, 12, 18, 0)
s = 54: (0, 11, 3, 7, 34, 29, 6, 25, 40, 14, 15, 0)
s = 55: (0, 6, 4, 4, 55, 24, 6, 62, 28, 15, 21, 0)
s = 56: (0, 12, 2, 5, 37, 31, 4, 32, 21, 11, 20, 0)
s = 57: (0, 7, 2, 7, 33, 23, 3, 40, 42, 9, 13, 0)
s = 58: (0, 6, 4, 6, 43, 23, 4, 25, 28, 8, 18, 0)
s = 59: (0, 14, 3, 8, 41, 20, 4, 62, 35, 11, 15, 0)
s = 60: (0, 7, 3, 8, 47, 31, 3, 40, 33, 13, 15, 0)
s = 61: (0, 10, 3, 7, 26, 40, 5, 33, 33, 13, 22, 0)
s = 62: (0, 10, 2, 5, 24, 18, 6, 49, 58, 15, 20, 0)
s = 63: (0, 10, 3, 5, 20, 16, 5, 23, 42, 10, 18, 0)
s = 64: (0, 14, 2, 9, 20, 45, 5, 49, 28, 19, 20, 0)
s = 65: (0, 10, 2, 8, 20, 39, 4, 31, 22, 11, 18, 0)
s = 66: (0, 7, 3, 7, 26, 28, 3, 63, 46, 11, 13, 0)
s = 67: (0, 8, 3, 4, 33, 30, 6, 42, 61, 18, 17, 0)
s = 68: (0, 13, 3, 5, 16, 20, 4, 52, 32, 9, 24, 0)
s = 69: (0, 16, 2, 7, 33, 40, 5, 37, 37, 16, 15, 0)
s = 70: (0, 8, 3, 7, 22, 23, 4, 39, 41, 9, 22, 0)
s = 71: (0, 9, 2, 8, 33, 35, 4, 31, 32, 15, 15, 0)
s = 72: (0, 7, 3, 7, 27, 27, 4, 27, 30, 14, 12, 0)
s = 73: (0, 12, 2, 8, 28, 27, 4, 34, 30, 14, 17, 0)
s = 74: (0, 12, 3, 4, 36, 27, 5, 39, 50, 12, 14, 0)
s = 75: (0, 17, 2, 8, 33, 21, 5, 26, 32, 9, 14, 0)
s = 76: (0, 7, 2, 6, 23, 44, 4, 28, 63, 13, 19, 0)
s = 77: (0, 9, 2, 7, 30, 31, 5, 33, 34, 9, 18, 0)
s = 78: (0, 16, 3, 9, 44, 17, 4, 33, 48, 8, 25, 0)
s = 79: (0, 9, 3, 6, 30, 15, 4, 27, 46, 22, 20, 0)
s = 80: (0, 11, 2, 6, 18, 26, 7, 22, 33, 12, 19, 0)
s = 81: (0, 10, 3, 5, 32, 34, 4, 37, 22, 9, 16, 0)
s = 82: (0, 5, 2, 5, 25, 28, 4, 25, 32, 12, 14, 0)
s = 83: (0, 16, 4, 6, 37, 26, 6, 31, 32, 15, 12, 0)
s = 84: (0, 9, 2, 4, 38, 19, 3, 23, 48, 9, 17, 0)
s = 85: (0, 7, 2, 9, 43, 23, 4, 57, 28, 18, 11, 0)
s = 86: (0, 8, 3, 6, 28, 31, 5, 23, 24, 10, 15, 0)
s = 87: (0, 6, 2, 5, 20, 33, 6, 34, 34, 16, 23, 0)
s = 88: (0, 7, 2, 7, 24, 22, 4, 33, 52, 10, 12, 0)
s = 89: (0, 16, 3, 7, 24, 15, 5, 38, 27, 11, 16, 0)
s = 90: (0, 15, 3, 6, 33, 29, 3, 35, 29, 17, 13, 0)
s = 91: (0, 13, 3, 5, 42, 32, 4, 21, 33, 9, 11, 0)
s = 92: (0, 11, 2, 6, 18, 36, 3, 52, 24, 11, 29, 0)
s = 93: (0, 7, 3, 7, 22, 20, 3, 47, 39, 14, 10, 0)
s = 94: (0, 7, 2, 7, 28, 38, 6, 37, 21, 21, 19, 0)
s = 95: (0, 14, 3, 5, 41, 24, 6, 40, 27, 15, 15, 0)
s = 96: (0, 10, 3, 7, 36, 16, 6, 26, 29, 18, 11, 0)
s = 97: (0, 9, 2, 6, 22, 16, 5, 29, 38, 21, 17, 0)
s = 98: (0, 11, 2, 9, 33, 32, 4, 31, 30, 13, 23, 0)
s = 99: (0, 6, 3, 6, 35, 22, 6, 20, 26, 9, 13, 0)
s = 100: (0, 8, 2, 6, 32, 24, 3, 42, 43, 10, 20, 0)
s = 101: (0, 13, 3, 4, 33, 26, 4, 56, 36, 11, 18, 0)
s = 102: (0, 9, 2, 5, 33, 24, 3, 44, 26, 14, 19, 0)
s = 103: (0, 7, 2, 4, 31, 32, 4, 41, 31, 10, 19, 0)
s = 104: (0, 7, 2, 6, 33, 15, 3, 34, 27, 19, 13, 0)
s = 105: (0, 9, 2, 4, 25, 46, 4, 41, 26, 14, 20, 0)
s = 106: (0, 6, 2, 5, 21, 21, 6, 31, 33, 12, 12, 0)
s = 107: (0, 9, 3, 6, 32, 26, 4, 47, 27, 18, 12, 0)
s = 108: (0, 11, 2, 6, 30, 21, 8, 44, 32, 10, 13, 0)
s = 109: (0, 11, 3, 4, 43, 20, 3, 30, 20, 8, 24, 0)
s = 110: (0, 14, 3, 6, 37, 20, 4, 38, 50, 14, 11, 0)
s = 111: (0, 10, 2, 8, 33, 32, 5, 30, 30, 20, 13, 0)
s = 112: (0, 6, 4, 5, 17, 32, 6, 31, 43, 9, 13, 0)
s = 113: (0, 14, 2, 10, 37, 21, 7, 39, 28, 11, 12, 0)
s = 114: (0, 8, 2, 7, 25, 19, 5, 39, 59, 15, 11, 0)
s = 115: (0, 9, 3, 6, 33, 28, 3, 41, 45, 9, 13, 0)
s = 116: (0, 8, 3, 8, 28, 27, 4, 45, 21, 17, 13, 0)
s = 117: (0, 7, 2, 5, 22, 15, 5, 31, 35, 15, 17, 0)
s = 118: (0, 8, 2, 5, 47, 22, 5, 33, 28, 7, 15, 0)
s = 119: (0, 7, 3, 6, 37, 18, 6, 50, 21, 11, 16, 0)
s = 120: (0, 11, 2, 4, 41, 26, 7, 22, 45, 12, 15, 0)
s = 121: (0, 9, 3, 6, 31, 20, 3, 29, 29, 17, 9, 0)
s = 122: (0, 11, 3, 6, 45, 32, 7, 26, 51, 10, 17, 0)
s = 123: (0, 5, 3, 8, 45, 25, 3, 41, 28, 14, 13, 0)
s = 124: (0, 9, 2, 6, 23, 28, 3, 23, 35, 19, 14, 0)
s = 125: (0, 10, 3, 10, 27, 22, 6, 38, 26, 12, 20, 0)
s = 126: (0, 12, 3, 7, 31, 30, 6, 39, 33, 18, 24, 0)
s = 127: (0, 15, 2, 6, 33, 32, 5, 23, 40, 11, 11, 0)
s = 128: (0, 9, 3, 6, 33, 23, 4, 24, 37, 13, 18, 0)
s = 129: (0, 14, 3, 8, 22, 43, 5, 25, 27, 12, 24, 0)
s = 130: (0, 8, 3, 6, 28, 18, 4, 26, 41, 11, 12, 0)
s = 131: (0, 8, 4, 6, 24, 26, 4, 38, 19, 19, 19, 0)
s = 132: (0, 12, 2, 5, 29, 21, 5, 25, 32, 13, 12, 0)
s = 133: (0, 9, 3, 9, 34, 16, 3, 27, 30, 15, 10, 0)
s = 134: (0, 12, 2, 8, 21, 30, 7, 28, 37, 8, 25, 0)
s = 135: (0, 6, 2, 5, 36, 24, 4, 33, 47, 18, 16, 0)
s = 136: (0, 11, 2, 6, 20, 32, 7, 57, 26, 14, 11, 0)
s = 137: (0, 7, 2, 6, 49, 22, 4, 39, 22, 7, 16, 0)
s = 138: (0, 6, 2, 7, 24, 24, 4, 22, 33, 10, 19, 0)
s = 139: (0, 7, 2, 9, 31, 22, 4, 25, 44, 11, 16, 0)
s = 140: (0, 6, 3, 6, 19, 21, 5, 37, 33, 21, 16, 0)
s = 141: (0, 11, 4, 4, 43, 26, 3, 36, 26, 12, 22, 0)
s = 142: (0, 5, 2, 5, 41, 22, 3, 35, 34, 19, 21, 0)
s = 143: (0, 13, 2, 6, 24, 19, 7, 33, 47, 8, 12, 0)
s = 144: (0, 10, 2, 11, 31, 19, 4, 21, 26, 10, 14, 0)
s = 145: (0, 13, 2, 5, 27, 25, 4, 24, 31, 11, 17, 0)
s = 146: (0, 6, 3, 4, 41, 25, 3, 43, 41, 18, 13, 0)
s = 147: (0, 6, 2, 5, 33, 28, 7, 43, 42, 7, 14, 0)
s = 148: (0, 10, 2, 5, 35, 25, 4, 31, 31, 11, 11, 0)
s = 149: (0, 8, 2, 7, 18, 28, 4, 49, 32, 15, 12, 0)
s = 150: (0, 11, 2, 6, 28, 22, 4, 22, 33, 8, 14, 0)
s = 151: (0, 11, 2, 6, 29, 19, 5, 47, 52, 8, 14, 0)
s = 152: (0, 12, 3, 7, 46, 16, 4, 42, 20, 16, 10, 0)
s = 153: (0, 9, 2, 4, 29, 39, 5, 41, 37, 11, 17, 0)
s = 154: (0, 8, 3, 7, 39, 21, 3, 19, 36, 8, 12, 0)
s = 155: (0, 7, 2, 12, 23, 20, 4, 32, 35, 12, 10, 0)
s = 156: (0, 11, 3, 4, 25, 22, 4, 29, 27, 11, 13, 0)
s = 157: (0, 10, 2, 6, 31, 17, 6, 48, 58, 9, 23, 0)
s = 158: (0, 11, 3, 5, 20, 30, 4, 33, 34, 11, 9, 0)
s = 159: (0, 8, 2, 10, 44, 22, 5, 62, 40, 8, 15, 0)
s = 160: (0, 8, 2, 4, 20, 29, 3, 43, 44, 9, 16, 0)
s = 161: (0, 8, 2, 6, 44, 35, 4, 32, 25, 12, 12, 0)
s = 162: (0, 6, 3, 7, 21, 35, 5, 31, 46, 7, 16, 0)
s = 163: (0, 10, 2, 5, 32, 26, 4, 42, 44, 14, 20, 0)
s = 164: (0, 8, 3, 5, 26, 19, 5, 35, 37, 13, 25, 0)
s = 165: (0, 14, 2, 4, 34, 15, 4, 49, 29, 9, 14, 0)
s = 166: (0, 14, 3, 9, 33, 23, 3, 33, 37, 11, 13, 0)
s = 167: (0, 9, 2, 5, 41, 24, 5, 30, 24, 19, 12, 0)
s = 168: (0, 12, 3, 7, 30, 37, 3, 35, 32, 9, 11, 0)
s = 169: (0, 13, 3, 9, 22, 18, 7, 46, 37, 15, 14, 0)
s = 170: (0, 8, 2, 7, 35, 29, 3, 44, 46, 11, 16, 0)
s = 171: (0, 7, 2, 8, 37, 21, 3, 49, 43, 13, 25, 0)
s = 172: (0, 11, 3, 5, 32, 27, 5, 60, 53, 13, 11, 0)
s = 173: (0, 10, 3, 7, 32, 17, 3, 29, 39, 13, 17, 0)
s = 174: (0, 10, 2, 6, 28, 20, 3, 28, 52, 11, 15, 0)
s = 175: (0, 11, 3, 5, 21, 29, 4, 50, 31, 9, 15, 0)
s = 176: (0, 8, 2, 4, 20, 30, 5, 31, 59, 18, 19, 0)
s = 177: (0, 8, 3, 8, 39, 25, 3, 31, 38, 11, 14, 0)
s = 178: (0, 14, 3, 7, 18, 15, 7, 27, 29, 16, 13, 0)
s = 179: (0, 9, 2, 10, 23, 22, 4, 29, 42, 10, 17, 0)
s = 180: (0, 6, 2, 5, 28, 26, 3, 37, 45, 12, 22, 0)
s = 181: (0, 12, 3, 4, 21, 16, 5, 21, 47, 8, 19, 0)
s = 182: (0, 16, 2, 8, 46, 22, 4, 39, 56, 15, 15, 0)
s = 183: (0, 7, 3, 7, 24, 23, 6, 41, 43, 15, 9, 0)
s = 184: (0, 10, 3, 5, 23, 16, 6, 64, 40, 11, 16, 0)
s = 185: (0, 9, 2, 8, 19, 22, 4, 31, 52, 10, 10, 0)
s = 186: (0, 9, 2, 6, 21, 32, 3, 39, 23, 16, 20, 0)
s = 187: (0, 8, 2, 7, 29, 28, 5, 43, 41, 15, 16, 0)
s = 188: (0, 14, 3, 9, 44, 21, 5, 45, 30, 12, 21, 0)
s = 189: (0, 13, 2, 5, 40, 38, 6, 37, 40, 15, 14, 0)
s = 190: (0, 10, 2, 8, 30, 18, 4, 39, 22, 19, 13, 0)
s = 191: (0, 10, 3, 5, 23, 21, 4, 48, 41, 12, 14, 0)
s = 192: (0, 9, 4, 5, 31, 33, 4, 50, 27, 16, 16, 0)
s = 193: (0, 7, 3, 6, 24, 21, 5, 36, 24, 18, 26, 0)
s = 194: (0, 12, 2, 5, 30, 29, 3, 42, 30, 13, 12, 0)
s = 195: (0, 13, 2, 6, 36, 24, 4, 35, 32, 9, 24, 0)
s = 196: (0, 9, 3, 6, 32, 24, 3, 30, 36, 11, 26, 0)
s = 197: (0, 13, 2, 5, 41, 30, 7, 42, 23, 11, 23, 0)
s = 198: (0, 7, 2, 6, 40, 30, 4, 56, 39, 17, 10, 0)
s = 199: (0, 14, 2, 5, 28, 18, 6, 40, 34, 16, 19, 0)
s = 200: (0, 16, 2, 10, 34, 24, 5, 37, 56, 10, 12, 0)
------------------------------------------------------------------------
RESOURCE k = 2
s = 1: (0, 4, 5, 16, 26, 25, 12, 39, 26, 25, 18, 0)
s = 2: (0, 5, 5, 17, 27, 26, 5, 32, 34, 15, 15, 0)
s = 3: (0, 5, 7, 22, 32, 37, 13, 31, 16, 23, 18, 0)
s = 4: (0, 7, 4, 27, 35, 56, 9, 48, 23, 14, 19, 0)
s = 5: (0, 5, 7, 16, 29, 25, 11, 30, 24, 23, 12, 0)
s = 6: (0, 6, 8, 19, 24, 56, 8, 28, 17, 16, 10, 0)
s = 7: (0, 4, 4, 15, 22, 48, 9, 40, 15, 17, 16, 0)
s = 8: (0, 8, 5, 18, 22, 41, 5, 49, 33, 25, 11, 0)
s = 9: (0, 4, 5, 18, 22, 38, 5, 46, 25, 13, 17, 0)
s = 10: (0, 7, 5, 22, 31, 33, 5, 33, 31, 18, 18, 0)
s = 11: (0, 6, 8, 25, 46, 39, 9, 29, 20, 18, 16, 0)
s = 12: (0, 5, 5, 27, 18, 24, 6, 55, 21, 18, 13, 0)
s = 13: (0, 5, 5, 19, 17, 27, 7, 32, 24, 19, 11, 0)
s = 14: (0, 7, 6, 26, 18, 44, 6, 31, 21, 19, 25, 0)
s = 15: (0, 3, 7, 18, 24, 28, 7, 56, 23, 14, 13, 0)
s = 16: (0, 4, 5, 17, 31, 35, 5, 45, 29, 23, 12, 0)
s = 17: (0, 5, 5, 33, 24, 35, 8, 42, 26, 19, 9, 0)
s = 18: (0, 5, 6, 21, 27, 53, 11, 68, 27, 16, 10, 0)
s = 19: (0, 5, 5, 27, 28, 31, 12, 30, 24, 23, 11, 0)
s = 20: (0, 4, 7, 18, 34, 46, 13, 56, 31, 10, 19, 0)
s = 21: (0, 6, 6, 22, 24, 54, 12, 46, 18, 17, 12, 0)
s = 22: (0, 4, 5, 14, 21, 44, 5, 47, 24, 30, 23, 0)
s = 23: (0, 3, 10, 35, 34, 28, 6, 46, 21, 10, 17, 0)
s = 24: (0, 3, 4, 15, 52, 28, 8, 37, 24, 19, 14, 0)
s = 25: (0, 5, 5, 25, 26, 43, 9, 37, 25, 10, 23, 0)
s = 26: (0, 4, 9, 31, 36, 39, 7, 23, 28, 22, 13, 0)
s = 27: (0, 4, 6, 27, 34, 30, 11, 26, 19, 25, 21, 0)
s = 28: (0, 5, 5, 19, 26, 30, 9, 64, 24, 16, 12, 0)
s = 29: (0, 6, 10, 16, 28, 44, 10, 33, 29, 23, 19, 0)
s = 30: (0, 3, 4, 35, 35, 30, 7, 30, 20, 13, 14, 0)
s = 31: (0, 6, 6, 27, 34, 35, 9, 29, 25, 21, 17, 0)
s = 32: (0, 4, 10, 23, 34, 41, 10, 39, 17, 14, 11, 0)
s = 33: (0, 4, 5, 26, 24, 63, 6, 31, 22, 25, 17, 0)
s = 34: (0, 4, 9, 24, 40, 25, 8, 38, 24, 16, 14, 0)
s = 35: (0, 5, 8, 24, 40, 25, 7, 44, 33, 26, 14, 0)
s = 36: (0, 6, 6, 18, 34, 37, 6, 62, 16, 35, 12, 0)
s = 37: (0, 6, 12, 20, 26, 26, 11, 44, 29, 13, 14, 0)
s = 38: (0, 4, 6, 13, 27, 45, 6, 47, 24, 13, 16, 0)
s = 39: (0, 3, 8, 16, 32, 37, 11, 31, 24, 21, 14, 0)
s = 40: (0, 4, 5, 25, 24, 43, 6, 38, 21, 27, 12, 0)
s = 41: (0, 5, 9, 25, 51, 55, 5, 48, 24, 21, 12, 0)
s = 42: (0, 7, 8, 13, 45, 28, 8, 34, 32, 20, 17, 0)
s = 43: (0, 4, 7, 13, 22, 32, 7, 31, 23, 19, 22, 0)
s = 44: (0, 4, 5, 23, 33, 49, 13, 48, 24, 12, 19, 0)
s = 45: (0, 5, 7, 17, 35, 25, 10, 51, 28, 18, 15, 0)
s = 46: (0, 4, 9, 17, 24, 37, 8, 36, 29, 16, 11, 0)
s = 47: (0, 3, 7, 21, 21, 34, 11, 29, 25, 18, 16, 0)
s = 48: (0, 4, 4, 14, 23, 34, 9, 36, 28, 20, 18, 0)
s = 49: (0, 5, 5, 28, 30, 26, 7, 55, 27, 18, 16, 0)
s = 50: (0, 4, 6, 31, 26, 27, 8, 50, 20, 15, 27, 0)
s = 51: (0, 4, 7, 22, 24, 47, 10, 43, 23, 11, 10, 0)
s = 52: (0, 3, 5, 12, 29, 37, 10, 40, 20, 17, 20, 0)
s = 53: (0, 3, 11, 23, 26, 46, 12, 52, 39, 17, 18, 0)
s = 54: (0, 5, 7, 24, 34, 41, 12, 29, 27, 20, 15, 0)
s = 55: (0, 3, 10, 12, 55, 34, 12, 73, 19, 23, 21, 0)
s = 56: (0, 5, 5, 15, 37, 43, 8, 37, 14, 17, 20, 0)
s = 57: (0, 3, 5, 24, 33, 31, 5, 47, 28, 14, 13, 0)
s = 58: (0, 3, 10, 19, 43, 32, 8, 30, 19, 12, 18, 0)
s = 59: (0, 6, 7, 26, 41, 27, 8, 72, 24, 16, 15, 0)
s = 60: (0, 4, 9, 26, 47, 43, 6, 47, 22, 19, 15, 0)
s = 61: (0, 5, 8, 25, 26, 56, 9, 38, 22, 19, 22, 0)
s = 62: (0, 5, 5, 18, 24, 25, 12, 57, 39, 22, 20, 0)
s = 63: (0, 5, 8, 16, 20, 23, 10, 27, 28, 15, 18, 0)
s = 64: (0, 6, 6, 29, 20, 63, 9, 57, 19, 28, 20, 0)
s = 65: (0, 5, 5, 25, 20, 55, 7, 36, 15, 17, 18, 0)
s = 66: (0, 3, 8, 22, 26, 40, 6, 74, 31, 16, 13, 0)
s = 67: (0, 4, 7, 11, 33, 42, 11, 49, 41, 27, 17, 0)
s = 68: (0, 6, 7, 18, 16, 27, 8, 61, 22, 14, 24, 0)
s = 69: (0, 8, 6, 23, 33, 56, 10, 43, 25, 24, 15, 0)
s = 70: (0, 4, 8, 22, 22, 32, 8, 45, 27, 13, 22, 0)
s = 71: (0, 4, 5, 27, 33, 49, 7, 36, 22, 23, 15, 0)
s = 72: (0, 3, 7, 24, 27, 37, 8, 31, 20, 20, 12, 0)
s = 73: (0, 6, 5, 25, 28, 37, 8, 40, 20, 21, 17, 0)
s = 74: (0, 6, 7, 11, 36, 37, 9, 46, 34, 18, 14, 0)
s = 75: (0, 8, 4, 26, 33, 29, 9, 30, 21, 13, 14, 0)
s = 76: (0, 3, 4, 20, 23, 61, 7, 33, 42, 19, 19, 0)
s = 77: (0, 4, 5, 24, 30, 43, 10, 39, 23, 13, 18, 0)
s = 78: (0, 8, 8, 31, 44, 23, 7, 39, 32, 11, 25, 0)
s = 79: (0, 4, 8, 19, 30, 20, 7, 31, 31, 33, 20, 0)
s = 80: (0, 5, 5, 19, 18, 36, 13, 26, 22, 17, 19, 0)
s = 81: (0, 5, 9, 16, 32, 47, 7, 44, 15, 14, 16, 0)
s = 82: (0, 3, 6, 16, 25, 40, 7, 29, 21, 18, 14, 0)
s = 83: (0, 7, 10, 20, 37, 36, 12, 37, 21, 22, 12, 0)
s = 84: (0, 4, 5, 14, 38, 26, 5, 27, 32, 13, 17, 0)
s = 85: (0, 3, 6, 30, 43, 32, 7, 67, 19, 27, 11, 0)
s = 86: (0, 4, 7, 19, 28, 43, 9, 27, 16, 15, 15, 0)
s = 87: (0, 3, 5, 16, 20, 46, 12, 40, 23, 23, 23, 0)
s = 88: (0, 3, 5, 25, 24, 30, 8, 38, 35, 15, 12, 0)
s = 89: (0, 7, 8, 22, 24, 21, 10, 44, 18, 17, 16, 0)
s = 90: (0, 7, 8, 20, 33, 41, 5, 41, 20, 25, 13, 0)
s = 91: (0, 6, 7, 15, 42, 45, 7, 24, 22, 13, 11, 0)
s = 92: (0, 5, 6, 19, 18, 51, 6, 60, 16, 16, 29, 0)
s = 93: (0, 3, 9, 24, 22, 28, 5, 54, 26, 21, 10, 0)
s = 94: (0, 4, 5, 23, 28, 53, 11, 43, 14, 31, 19, 0)
s = 95: (0, 6, 8, 16, 41, 34, 11, 46, 18, 22, 15, 0)
s = 96: (0, 5, 7, 24, 36, 22, 11, 30, 19, 27, 11, 0)
s = 97: (0, 4, 6, 18, 22, 22, 10, 34, 26, 31, 17, 0)
s = 98: (0, 5, 5, 29, 33, 45, 7, 36, 20, 19, 23, 0)
s = 99: (0, 3, 7, 21, 35, 31, 11, 24, 17, 13, 13, 0)
s = 100: (0, 4, 4, 20, 32, 33, 5, 49, 29, 15, 20, 0)
s = 101: (0, 6, 8, 14, 33, 36, 8, 66, 24, 16, 18, 0)
s = 102: (0, 4, 4, 18, 33, 34, 5, 52, 17, 21, 19, 0)
s = 103: (0, 3, 6, 13, 31, 44, 7, 48, 21, 14, 19, 0)
s = 104: (0, 3, 5, 20, 33, 21, 6, 40, 18, 28, 13, 0)
s = 105: (0, 4, 6, 12, 25, 65, 8, 47, 18, 20, 20, 0)
s = 106: (0, 3, 6, 16, 21, 29, 12, 36, 22, 18, 12, 0)
s = 107: (0, 4, 7, 18, 32, 37, 7, 54, 18, 27, 12, 0)
s = 108: (0, 5, 5, 19, 30, 29, 15, 52, 21, 15, 13, 0)
s = 109: (0, 5, 7, 14, 43, 28, 6, 35, 14, 12, 24, 0)
s = 110: (0, 6, 7, 19, 37, 27, 8, 44, 33, 21, 11, 0)
s = 111: (0, 5, 4, 28, 33, 44, 10, 35, 20, 30, 13, 0)
s = 112: (0, 3, 11, 15, 17, 45, 12, 36, 29, 13, 13, 0)
s = 113: (0, 6, 6, 33, 37, 29, 13, 45, 19, 17, 12, 0)
s = 114: (0, 4, 6, 23, 25, 26, 10, 45, 40, 23, 11, 0)
s = 115: (0, 4, 7, 20, 33, 39, 6, 48, 30, 13, 13, 0)
s = 116: (0, 4, 7, 26, 28, 37, 7, 52, 14, 26, 13, 0)
s = 117: (0, 3, 6, 17, 22, 21, 9, 36, 24, 23, 17, 0)
s = 118: (0, 4, 6, 15, 47, 30, 9, 39, 19, 11, 15, 0)
s = 119: (0, 3, 7, 21, 37, 25, 12, 58, 14, 16, 16, 0)
s = 120: (0, 5, 5, 13, 41, 36, 14, 26, 30, 18, 15, 0)
s = 121: (0, 4, 8, 20, 31, 28, 6, 34, 19, 25, 9, 0)
s = 122: (0, 5, 8, 18, 45, 45, 14, 30, 34, 14, 17, 0)
s = 123: (0, 3, 7, 26, 45, 34, 5, 48, 19, 21, 13, 0)
s = 124: (0, 4, 6, 19, 23, 39, 6, 27, 24, 29, 14, 0)
s = 125: (0, 5, 7, 32, 27, 31, 11, 44, 17, 18, 20, 0)
s = 126: (0, 6, 7, 24, 31, 41, 12, 45, 22, 26, 24, 0)
s = 127: (0, 7, 6, 18, 33, 45, 9, 27, 27, 16, 11, 0)
s = 128: (0, 4, 7, 19, 33, 32, 7, 28, 25, 19, 18, 0)
s = 129: (0, 6, 9, 27, 22, 61, 9, 29, 18, 17, 24, 0)
s = 130: (0, 4, 9, 19, 28, 25, 7, 30, 27, 16, 12, 0)
s = 131: (0, 4, 10, 20, 24, 36, 7, 45, 13, 28, 19, 0)
s = 132: (0, 6, 5, 16, 29, 30, 9, 30, 22, 20, 12, 0)
s = 133: (0, 4, 7, 29, 34, 22, 5, 31, 20, 23, 10, 0)
s = 134: (0, 6, 5, 28, 21, 41, 14, 32, 25, 11, 25, 0)
s = 135: (0, 3, 5, 17, 36, 34, 7, 38, 32, 27, 16, 0)
s = 136: (0, 5, 5, 20, 20, 44, 13, 66, 17, 21, 11, 0)
s = 137: (0, 4, 5, 21, 49, 30, 7, 46, 15, 11, 16, 0)
s = 138: (0, 3, 6, 22, 24, 33, 7, 26, 22, 15, 19, 0)
s = 139: (0, 4, 6, 31, 31, 30, 7, 30, 29, 16, 16, 0)
s = 140: (0, 3, 7, 21, 19, 30, 9, 43, 22, 31, 16, 0)
s = 141: (0, 5, 10, 13, 43, 37, 6, 42, 17, 18, 22, 0)
s = 142: (0, 3, 4, 16, 41, 31, 5, 41, 23, 29, 21, 0)
s = 143: (0, 6, 5, 19, 24, 27, 14, 39, 31, 12, 12, 0)
s = 144: (0, 5, 5, 37, 31, 26, 8, 24, 17, 15, 14, 0)
s = 145: (0, 6, 4, 15, 27, 35, 8, 28, 21, 16, 17, 0)
s = 146: (0, 3, 8, 14, 41, 35, 6, 50, 28, 26, 13, 0)
s = 147: (0, 3, 4, 15, 33, 40, 13, 50, 28, 10, 14, 0)
s = 148: (0, 5, 6, 15, 35, 35, 7, 36, 21, 16, 11, 0)
s = 149: (0, 4, 5, 24, 18, 40, 8, 58, 22, 22, 12, 0)
s = 150: (0, 5, 6, 21, 28, 30, 7, 25, 22, 12, 14, 0)
s = 151: (0, 5, 6, 20, 29, 26, 9, 54, 35, 12, 14, 0)
s = 152: (0, 6, 7, 23, 46, 23, 8, 49, 13, 23, 10, 0)
s = 153: (0, 4, 6, 13, 29, 54, 9, 48, 25, 17, 17, 0)
s = 154: (0, 4, 9, 23, 39, 29, 5, 22, 24, 12, 12, 0)
s = 155: (0, 4, 6, 40, 23, 27, 8, 38, 23, 18, 10, 0)
s = 156: (0, 5, 7, 12, 25, 30, 8, 34, 18, 16, 13, 0)
s = 157: (0, 5, 5, 21, 31, 24, 12, 56, 39, 14, 23, 0)
s = 158: (0, 5, 7, 16, 20, 42, 8, 38, 23, 16, 9, 0)
s = 159: (0, 4, 4, 35, 44, 31, 10, 73, 27, 12, 15, 0)
s = 160: (0, 4, 6, 14, 20, 41, 5, 50, 29, 13, 16, 0)
s = 161: (0, 4, 6, 21, 44, 49, 8, 38, 17, 18, 12, 0)
s = 162: (0, 3, 8, 22, 21, 49, 10, 36, 31, 10, 16, 0)
s = 163: (0, 5, 6, 16, 32, 36, 7, 48, 30, 21, 20, 0)
s = 164: (0, 4, 7, 15, 26, 27, 9, 41, 25, 19, 25, 0)
s = 165: (0, 6, 5, 13, 34, 21, 8, 57, 20, 13, 14, 0)
s = 166: (0, 7, 7, 29, 33, 33, 6, 38, 25, 16, 13, 0)
s = 167: (0, 4, 6, 15, 41, 33, 10, 35, 16, 28, 12, 0)
s = 168: (0, 6, 7, 24, 30, 51, 5, 41, 21, 14, 11, 0)
s = 169: (0, 6, 7, 29, 22, 25, 13, 54, 25, 22, 14, 0)
s = 170: (0, 4, 5, 23, 35, 40, 6, 51, 31, 17, 16, 0)
s = 171: (0, 3, 5, 27, 37, 29, 6, 57, 29, 19, 25, 0)
s = 172: (0, 5, 9, 17, 32, 38, 10, 70, 35, 19, 11, 0)
s = 173: (0, 5, 9, 22, 32, 24, 5, 34, 26, 20, 17, 0)
s = 174: (0, 5, 6, 19, 28, 28, 5, 33, 35, 17, 15, 0)
s = 175: (0, 5, 9, 15, 21, 40, 7, 58, 21, 14, 15, 0)
s = 176: (0, 4, 5, 14, 20, 41, 10, 36, 39, 27, 19, 0)
s = 177: (0, 4, 8, 28, 39, 35, 6, 36, 25, 16, 14, 0)
s = 178: (0, 7, 9, 22, 18, 21, 13, 31, 19, 24, 13, 0)
s = 179: (0, 4, 4, 35, 23, 30, 8, 33, 28, 15, 17, 0)
s = 180: (0, 3, 6, 17, 28, 37, 6, 44, 30, 17, 22, 0)
s = 181: (0, 6, 9, 12, 21, 22, 10, 25, 31, 12, 19, 0)
s = 182: (0, 7, 6, 26, 46, 30, 8, 46, 38, 22, 15, 0)
s = 183: (0, 3, 9, 23, 24, 32, 12, 47, 29, 22, 9, 0)
s = 184: (0, 5, 7, 15, 23, 22, 12, 74, 27, 16, 16, 0)
s = 185: (0, 4, 5, 27, 19, 31, 8, 36, 35, 15, 10, 0)
s = 186: (0, 4, 5, 20, 21, 44, 6, 46, 16, 23, 20, 0)
s = 187: (0, 4, 6, 23, 29, 39, 9, 50, 28, 22, 16, 0)
s = 188: (0, 6, 7, 32, 44, 29, 9, 52, 20, 18, 21, 0)
s = 189: (0, 6, 5, 16, 40, 53, 11, 43, 27, 22, 14, 0)
s = 190: (0, 5, 4, 26, 30, 26, 7, 45, 15, 28, 13, 0)
s = 191: (0, 5, 9, 16, 23, 30, 8, 56, 28, 18, 14, 0)
s = 192: (0, 4, 10, 17, 31, 46, 8, 58, 18, 24, 16, 0)
s = 193: (0, 3, 7, 20, 24, 30, 9, 42, 16, 27, 26, 0)
s = 194: (0, 6, 5, 17, 30, 41, 6, 49, 20, 19, 12, 0)
s = 195: (0, 6, 6, 21, 36, 34, 8, 41, 21, 13, 24, 0)
s = 196: (0, 4, 7, 21, 32, 34, 6, 35, 24, 16, 26, 0)
s = 197: (0, 6, 5, 15, 41, 41, 13, 49, 15, 17, 23, 0)
s = 198: (0, 3, 6, 20, 40, 42, 7, 66, 26, 25, 10, 0)
s = 199: (0, 7, 5, 17, 28, 24, 12, 46, 23, 24, 19, 0)
s = 200: (0, 7, 6, 33, 34, 33, 9, 43, 38, 15, 12, 0)
------------------------------------------------------------------------
RESOURCE k = 3
s = 1: (0, 8, 3, 14, 26, 25, 21, 49, 13, 25, 16, 0)
s = 2: (0, 9, 4, 14, 27, 26, 8, 41, 17, 15, 13, 0)
s = 3: (0, 9, 5, 19, 32, 37, 23, 40, 8, 23, 16, 0)
s = 4: (0, 13, 3, 23, 35, 56, 15, 62, 12, 14, 16, 0)
s = 5: (0, 9, 5, 14, 29, 25, 20, 38, 12, 23, 10, 0)
s = 6: (0, 11, 5, 16, 24, 56, 14, 35, 9, 16, 8, 0)
s = 7: (0, 7, 3, 13, 22, 48, 15, 51, 8, 17, 14, 0)
s = 8: (0, 15, 4, 16, 22, 41, 8, 63, 17, 25, 10, 0)
s = 9: (0, 7, 3, 16, 22, 38, 8, 59, 13, 13, 15, 0)
s = 10: (0, 13, 3, 19, 31, 33, 9, 42, 16, 18, 16, 0)
s = 11: (0, 11, 6, 22, 46, 39, 15, 37, 10, 18, 14, 0)
s = 12: (0, 10, 3, 23, 18, 24, 10, 70, 11, 18, 12, 0)
s = 13: (0, 10, 4, 16, 17, 27, 12, 40, 12, 19, 10, 0)
s = 14: (0, 13, 4, 22, 18, 44, 11, 39, 11, 19, 22, 0)
s = 15: (0, 5, 5, 16, 24, 28, 11, 72, 12, 14, 12, 0)
s = 16: (0, 7, 3, 15, 31, 35, 9, 57, 15, 23, 11, 0)
s = 17: (0, 9, 4, 29, 24, 35, 14, 54, 13, 19, 8, 0)
s = 18: (0, 9, 4, 18, 27, 53, 18, 88, 14, 16, 9, 0)
s = 19: (0, 9, 3, 23, 28, 31, 20, 39, 12, 23, 10, 0)
s = 20: (0, 8, 5, 16, 34, 46, 22, 72, 16, 10, 17, 0)
s = 21: (0, 11, 4, 19, 24, 54, 20, 59, 9, 17, 11, 0)
s = 22: (0, 8, 4, 12, 21, 44, 8, 60, 12, 30, 21, 0)
s = 23: (0, 6, 7, 30, 34, 28, 10, 59, 11, 10, 15, 0)
s = 24: (0, 6, 3, 13, 52, 28, 14, 47, 12, 19, 13, 0)
s = 25: (0, 10, 3, 22, 26, 43, 15, 47, 13, 10, 20, 0)
s = 26: (0, 8, 6, 27, 36, 39, 11, 30, 14, 22, 11, 0)
s = 27: (0, 7, 4, 23, 34, 30, 19, 34, 10, 25, 19, 0)
s = 28: (0, 9, 3, 16, 26, 30, 16, 82, 12, 16, 11, 0)
s = 29: (0, 11, 7, 14, 28, 44, 18, 42, 15, 23, 16, 0)
s = 30: (0, 5, 3, 30, 35, 30, 12, 39, 10, 13, 12, 0)
s = 31: (0, 11, 4, 23, 34, 35, 15, 37, 13, 21, 15, 0)
s = 32: (0, 7, 7, 19, 34, 41, 18, 50, 9, 14, 10, 0)
s = 33: (0, 8, 4, 23, 24, 63, 11, 39, 11, 25, 15, 0)
s = 34: (0, 7, 6, 20, 40, 25, 13, 48, 12, 16, 13, 0)
s = 35: (0, 10, 6, 21, 40, 25, 11, 56, 17, 26, 12, 0)
s = 36: (0, 11, 4, 16, 34, 37, 10, 80, 8, 35, 11, 0)
s = 37: (0, 12, 8, 17, 26, 26, 18, 57, 15, 13, 12, 0)
s = 38: (0, 8, 4, 11, 27, 45, 9, 61, 12, 13, 14, 0)
s = 39: (0, 5, 6, 14, 32, 37, 19, 39, 12, 21, 12, 0)
s = 40: (0, 7, 4, 21, 24, 43, 9, 49, 11, 27, 10, 0)
s = 41: (0, 9, 6, 21, 51, 55, 8, 61, 12, 21, 10, 0)
s = 42: (0, 13, 6, 11, 45, 28, 14, 43, 16, 20, 15, 0)
s = 43: (0, 7, 5, 12, 22, 32, 12, 40, 12, 19, 19, 0)
s = 44: (0, 8, 3, 20, 33, 49, 22, 62, 12, 12, 17, 0)
s = 45: (0, 9, 5, 15, 35, 25, 18, 65, 14, 18, 13, 0)
s = 46: (0, 8, 6, 14, 24, 37, 13, 46, 15, 16, 10, 0)
s = 47: (0, 6, 5, 18, 21, 34, 18, 37, 13, 18, 14, 0)
s = 48: (0, 7, 3, 12, 23, 34, 16, 46, 14, 20, 16, 0)
s = 49: (0, 10, 4, 24, 30, 26, 13, 70, 14, 18, 14, 0)
s = 50: (0, 8, 4, 27, 26, 27, 14, 64, 10, 15, 23, 0)
s = 51: (0, 8, 5, 19, 24, 47, 18, 55, 12, 11, 9, 0)
s = 52: (0, 5, 3, 10, 29, 37, 17, 51, 10, 17, 18, 0)
s = 53: (0, 6, 8, 20, 26, 46, 21, 66, 20, 17, 16, 0)
s = 54: (0, 10, 5, 20, 34, 41, 21, 37, 14, 20, 14, 0)
s = 55: (0, 5, 7, 11, 55, 34, 20, 93, 10, 23, 19, 0)
s = 56: (0, 10, 4, 13, 37, 43, 14, 48, 7, 17, 18, 0)
s = 57: (0, 6, 3, 20, 33, 31, 9, 60, 14, 14, 12, 0)
s = 58: (0, 5, 7, 17, 43, 32, 13, 38, 10, 12, 15, 0)
s = 59: (0, 12, 5, 22, 41, 27, 13, 93, 12, 16, 13, 0)
s = 60: (0, 7, 6, 22, 47, 43, 9, 60, 11, 19, 13, 0)
s = 61: (0, 9, 6, 21, 26, 56, 16, 49, 11, 19, 19, 0)
s = 62: (0, 9, 4, 15, 24, 25, 21, 73, 20, 22, 17, 0)
s = 63: (0, 9, 5, 14, 20, 23, 16, 35, 14, 15, 16, 0)
s = 64: (0, 12, 4, 25, 20, 63, 15, 74, 10, 28, 17, 0)
s = 65: (0, 9, 4, 22, 20, 55, 11, 46, 8, 17, 15, 0)
s = 66: (0, 6, 5, 19, 26, 40, 11, 95, 16, 16, 11, 0)
s = 67: (0, 7, 5, 10, 33, 42, 18, 63, 21, 27, 15, 0)
s = 68: (0, 12, 5, 15, 16, 27, 13, 78, 11, 14, 21, 0)
s = 69: (0, 15, 4, 20, 33, 56, 17, 55, 13, 24, 13, 0)
s = 70: (0, 7, 5, 19, 22, 32, 14, 58, 14, 13, 20, 0)
s = 71: (0, 8, 3, 23, 33, 49, 13, 47, 11, 23, 13, 0)
s = 72: (0, 6, 5, 21, 27, 37, 14, 40, 10, 20, 10, 0)
s = 73: (0, 11, 4, 22, 28, 37, 14, 51, 10, 21, 15, 0)
s = 74: (0, 11, 5, 10, 36, 37, 15, 59, 17, 18, 12, 0)
s = 75: (0, 15, 3, 22, 33, 29, 16, 39, 11, 13, 13, 0)
s = 76: (0, 6, 3, 17, 23, 61, 11, 42, 21, 19, 17, 0)
s = 77: (0, 8, 3, 21, 30, 43, 17, 50, 12, 13, 16, 0)
s = 78: (0, 15, 6, 26, 44, 23, 12, 50, 16, 11, 22, 0)
s = 79: (0, 8, 6, 16, 30, 20, 12, 40, 16, 33, 18, 0)
s = 80: (0, 10, 4, 16, 18, 36, 22, 33, 11, 17, 17, 0)
s = 81: (0, 9, 6, 14, 32, 47, 12, 56, 8, 14, 14, 0)
s = 82: (0, 5, 4, 14, 25, 40, 12, 37, 11, 18, 12, 0)
s = 83: (0, 14, 7, 17, 37, 36, 21, 47, 11, 22, 10, 0)
s = 84: (0, 8, 3, 12, 38, 26, 9, 35, 16, 13, 15, 0)
s = 85: (0, 6, 4, 26, 43, 32, 11, 85, 10, 27, 10, 0)
s = 86: (0, 7, 5, 16, 28, 43, 16, 35, 8, 15, 13, 0)
s = 87: (0, 5, 3, 14, 20, 46, 21, 51, 12, 23, 21, 0)
s = 88: (0, 6, 3, 21, 24, 30, 13, 49, 18, 15, 11, 0)
s = 89: (0, 14, 6, 19, 24, 21, 17, 57, 9, 17, 14, 0)
s = 90: (0, 13, 6, 17, 33, 41, 8, 53, 10, 25, 11, 0)
s = 91: (0, 12, 5, 13, 42, 45, 13, 31, 11, 13, 10, 0)
s = 92: (0, 10, 4, 17, 18, 51, 10, 77, 8, 16, 25, 0)
s = 93: (0, 6, 6, 21, 22, 28, 9, 70, 13, 21, 9, 0)
s = 94: (0, 7, 3, 20, 28, 53, 19, 55, 7, 31, 16, 0)
s = 95: (0, 12, 6, 14, 41, 34, 19, 60, 9, 22, 13, 0)
s = 96: (0, 9, 5, 21, 36, 22, 18, 39, 10, 27, 10, 0)
s = 97: (0, 8, 4, 16, 22, 22, 17, 44, 13, 31, 15, 0)
s = 98: (0, 10, 3, 25, 33, 45, 12, 46, 10, 19, 20, 0)
s = 99: (0, 5, 5, 18, 35, 31, 19, 30, 9, 13, 11, 0)
s = 100: (0, 8, 3, 17, 32, 33, 9, 63, 15, 15, 18, 0)
s = 101: (0, 12, 6, 12, 33, 36, 13, 84, 12, 16, 16, 0)
s = 102: (0, 8, 3, 15, 33, 34, 9, 66, 9, 21, 16, 0)
s = 103: (0, 6, 4, 11, 31, 44, 12, 62, 11, 14, 17, 0)
s = 104: (0, 6, 4, 17, 33, 21, 11, 51, 9, 28, 11, 0)
s = 105: (0, 8, 4, 10, 25, 65, 14, 61, 9, 20, 18, 0)
s = 106: (0, 5, 4, 14, 21, 29, 20, 46, 11, 18, 11, 0)
s = 107: (0, 8, 5, 16, 32, 37, 13, 70, 9, 27, 11, 0)
s = 108: (0, 10, 3, 17, 30, 29, 26, 66, 11, 15, 11, 0)
s = 109: (0, 9, 5, 12, 43, 28, 10, 45, 7, 12, 21, 0)
s = 110: (0, 12, 5, 17, 37, 27, 14, 57, 17, 21, 10, 0)
s = 111: (0, 9, 3, 24, 33, 44, 17, 44, 10, 30, 11, 0)
s = 112: (0, 5, 7, 13, 17, 45, 21, 46, 15, 13, 12, 0)
s = 113: (0, 12, 4, 28, 37, 29, 22, 58, 10, 17, 11, 0)
s = 114: (0, 7, 4, 20, 25, 26, 18, 58, 20, 23, 10, 0)
s = 115: (0, 8, 5, 17, 33, 39, 11, 62, 15, 13, 11, 0)
s = 116: (0, 7, 5, 22, 28, 37, 13, 67, 7, 26, 11, 0)
s = 117: (0, 6, 4, 15, 22, 21, 16, 46, 12, 23, 15, 0)
s = 118: (0, 7, 4, 13, 47, 30, 15, 49, 10, 11, 13, 0)
s = 119: (0, 6, 5, 18, 37, 25, 21, 74, 7, 16, 14, 0)
s = 120: (0, 10, 4, 11, 41, 36, 24, 33, 15, 18, 13, 0)
s = 121: (0, 8, 6, 17, 31, 28, 11, 43, 10, 25, 8, 0)
s = 122: (0, 10, 6, 16, 45, 45, 23, 39, 17, 14, 15, 0)
s = 123: (0, 5, 5, 23, 45, 34, 9, 61, 10, 21, 12, 0)
s = 124: (0, 8, 4, 17, 23, 39, 10, 34, 12, 29, 13, 0)
s = 125: (0, 9, 5, 28, 27, 31, 19, 56, 9, 18, 18, 0)
s = 126: (0, 11, 5, 21, 31, 41, 20, 58, 11, 26, 21, 0)
s = 127: (0, 14, 4, 16, 33, 45, 15, 35, 14, 16, 10, 0)
s = 128: (0, 8, 5, 17, 33, 32, 11, 36, 13, 19, 16, 0)
s = 129: (0, 12, 6, 23, 22, 61, 15, 37, 9, 17, 21, 0)
s = 130: (0, 7, 6, 17, 28, 25, 12, 39, 14, 16, 10, 0)
s = 131: (0, 7, 7, 17, 24, 36, 12, 57, 7, 28, 16, 0)
s = 132: (0, 11, 4, 14, 29, 30, 16, 38, 11, 20, 10, 0)
s = 133: (0, 8, 5, 25, 34, 22, 9, 40, 10, 23, 8, 0)
s = 134: (0, 11, 4, 24, 21, 41, 25, 41, 13, 11, 22, 0)
s = 135: (0, 6, 3, 15, 36, 34, 11, 49, 16, 27, 14, 0)
s = 136: (0, 9, 3, 17, 20, 44, 23, 85, 9, 21, 10, 0)
s = 137: (0, 7, 4, 18, 49, 30, 12, 59, 8, 11, 14, 0)
s = 138: (0, 6, 4, 19, 24, 33, 12, 33, 11, 15, 17, 0)
s = 139: (0, 7, 4, 26, 31, 30, 11, 38, 15, 16, 14, 0)
s = 140: (0, 5, 5, 18, 19, 30, 15, 55, 11, 31, 14, 0)
s = 141: (0, 9, 7, 11, 43, 37, 9, 54, 9, 18, 20, 0)
s = 142: (0, 5, 3, 14, 41, 31, 8, 53, 12, 29, 18, 0)
s = 143: (0, 11, 4, 16, 24, 27, 23, 50, 16, 12, 11, 0)
s = 144: (0, 9, 4, 31, 31, 26, 13, 31, 9, 15, 12, 0)
s = 145: (0, 11, 3, 13, 27, 35, 14, 36, 11, 16, 15, 0)
s = 146: (0, 6, 5, 12, 41, 35, 11, 64, 14, 26, 11, 0)
s = 147: (0, 6, 3, 13, 33, 40, 22, 65, 14, 10, 12, 0)
s = 148: (0, 9, 4, 13, 35, 35, 12, 46, 11, 16, 10, 0)
s = 149: (0, 7, 4, 21, 18, 40, 13, 74, 11, 22, 10, 0)
s = 150: (0, 9, 4, 18, 28, 30, 12, 33, 11, 12, 13, 0)
s = 151: (0, 10, 4, 18, 29, 26, 15, 70, 18, 12, 12, 0)
s = 152: (0, 11, 5, 20, 46, 23, 14, 63, 7, 23, 9, 0)
s = 153: (0, 8, 4, 11, 29, 54, 16, 62, 13, 17, 15, 0)
s = 154: (0, 7, 6, 20, 39, 29, 9, 28, 12, 12, 11, 0)
s = 155: (0, 7, 4, 35, 23, 27, 13, 48, 12, 18, 9, 0)
s = 156: (0, 9, 5, 11, 25, 30, 14, 43, 9, 16, 12, 0)
s = 157: (0, 9, 4, 18, 31, 24, 20, 71, 20, 14, 20, 0)
s = 158: (0, 10, 5, 14, 20, 42, 13, 49, 12, 16, 8, 0)
s = 159: (0, 7, 3, 30, 44, 31, 17, 93, 14, 12, 13, 0)
s = 160: (0, 7, 4, 12, 20, 41, 8, 65, 15, 13, 14, 0)
s = 161: (0, 7, 4, 18, 44, 49, 14, 48, 9, 18, 10, 0)
s = 162: (0, 6, 6, 19, 21, 49, 18, 46, 16, 10, 14, 0)
s = 163: (0, 9, 4, 14, 32, 36, 13, 62, 15, 21, 18, 0)
s = 164: (0, 7, 5, 13, 26, 27, 16, 52, 13, 19, 22, 0)
s = 165: (0, 12, 4, 11, 34, 21, 13, 74, 10, 13, 12, 0)
s = 166: (0, 13, 5, 25, 33, 33, 9, 49, 13, 16, 11, 0)
s = 167: (0, 8, 4, 13, 41, 33, 18, 45, 8, 28, 11, 0)
s = 168: (0, 11, 5, 20, 30, 51, 9, 53, 11, 14, 10, 0)
s = 169: (0, 12, 5, 25, 22, 25, 22, 69, 13, 22, 12, 0)
s = 170: (0, 7, 4, 20, 35, 40, 11, 65, 16, 17, 14, 0)
s = 171: (0, 6, 4, 23, 37, 29, 10, 73, 15, 19, 22, 0)
s = 172: (0, 9, 6, 15, 32, 38, 16, 90, 18, 19, 9, 0)
s = 173: (0, 9, 6, 19, 32, 24, 9, 43, 13, 20, 15, 0)
s = 174: (0, 9, 4, 16, 28, 28, 9, 42, 18, 17, 13, 0)
s = 175: (0, 10, 6, 13, 21, 40, 12, 74, 11, 14, 13, 0)
s = 176: (0, 7, 4, 12, 20, 41, 17, 47, 20, 27, 17, 0)
s = 177: (0, 7, 6, 24, 39, 35, 11, 46, 13, 16, 12, 0)
s = 178: (0, 13, 6, 19, 18, 21, 23, 40, 10, 24, 12, 0)
s = 179: (0, 8, 3, 30, 23, 30, 14, 43, 14, 15, 15, 0)
s = 180: (0, 6, 4, 15, 28, 37, 11, 56, 15, 17, 19, 0)
s = 181: (0, 11, 6, 11, 21, 22, 17, 32, 16, 12, 17, 0)
s = 182: (0, 14, 4, 22, 46, 30, 13, 59, 19, 22, 13, 0)
s = 183: (0, 6, 6, 20, 24, 32, 21, 61, 15, 22, 8, 0)
s = 184: (0, 9, 5, 13, 23, 22, 21, 95, 14, 16, 14, 0)
s = 185: (0, 8, 4, 23, 19, 31, 14, 46, 18, 15, 8, 0)
s = 186: (0, 8, 4, 17, 21, 44, 11, 59, 8, 23, 17, 0)
s = 187: (0, 7, 4, 20, 29, 39, 16, 64, 14, 22, 14, 0)
s = 188: (0, 12, 5, 27, 44, 29, 15, 67, 10, 18, 18, 0)
s = 189: (0, 11, 4, 14, 40, 53, 19, 55, 14, 22, 12, 0)
s = 190: (0, 9, 3, 22, 30, 26, 12, 58, 8, 28, 11, 0)
s = 191: (0, 9, 6, 14, 23, 30, 14, 72, 14, 18, 12, 0)
s = 192: (0, 8, 7, 14, 31, 46, 14, 74, 9, 24, 14, 0)
s = 193: (0, 6, 5, 17, 24, 30, 15, 54, 8, 27, 22, 0)
s = 194: (0, 11, 3, 14, 30, 41, 11, 63, 10, 19, 11, 0)
s = 195: (0, 11, 4, 18, 36, 34, 13, 52, 11, 13, 21, 0)
s = 196: (0, 8, 5, 18, 32, 34, 10, 45, 12, 16, 23, 0)
s = 197: (0, 12, 3, 13, 41, 41, 22, 63, 8, 17, 20, 0)
s = 198: (0, 6, 4, 17, 40, 42, 12, 84, 13, 25, 9, 0)
s = 199: (0, 13, 3, 15, 28, 24, 20, 60, 12, 24, 17, 0)
s = 200: (0, 14, 4, 28, 34, 33, 15, 55, 19, 15, 11, 0)
************************************************************************
ES/LS-VALUES:
jobnr.   ES(i)    LS(i)
------------------------------------------------------------------------
  0        0        0
  1        0       59
  2        0       49
  3        0       45
  4        2       51
  5        6       51
  6        2       53
  7        7       57
  8       15       61
  9       17       68
 10       15       68
 11       25       72
************************************************************************
BIG-M-VALUES:
M1 = 63, M2 = 233
************************************************************************
